
Gurobi 13.0.2 (win64) logging started Thu Jul 23 08:41:32 2026

Set parameter LogFile to value "E:\codes\ExactEBRP\results\gf_cplex_equivalent_gurobi_replica_round28\runs\stage3__moderate_seed3302__c3_replica__300s\external\native_logs\R.0.0.1.0.1.0.0.0.0.0_terminal_mip.gurobi.log"
Gurobi Optimizer version 13.0.2 build v13.0.2rc1 (win64 - Windows 10.0 (19045.2))

CPU model: 12th Gen Intel(R) Core(TM) i7-12700KF, instruction set [SSE2|AVX|AVX2]
Thread count: 12 physical cores, 20 logical processors, using up to 1 threads

Non-default parameters:
TimeLimit  1.5239873889999998e+02
MIPGap  0
MIPGapAbs  0
LogToConsole  0
Threads  1

Optimize a model with 11903 rows, 3374 columns and 67328 nonzeros (Min)
Model fingerprint: 0xb1dfb84a
Model has 21 linear objective coefficients
Variable types: 1684 continuous, 1690 integer (1490 binary)
Coefficient statistics:
  Matrix range     [7e-03, 1e+04]
  Objective range  [7e-03, 1e+00]
  Bounds range     [3e-02, 3e+02]
  RHS range        [3e-02, 5e+04]

Presolve removed 853 rows and 77 columns
Presolve time: 0.18s
Presolved: 11050 rows, 3297 columns, 70384 nonzeros
Variable types: 1633 continuous, 1664 integer (1473 binary)

Root relaxation: objective 1.394732e-01, 3589 iterations, 0.22 seconds (0.56 work units)

    Nodes    |    Current Node    |     Objective Bounds      |     Work
 Expl Unexpl |  Obj  Depth IntInf | Incumbent    BestBd   Gap | It/Node Time

     0     0    0.13947    0  235          -    0.13947      -     -    0s
     0     0    0.13948    0  281          -    0.13948      -     -    1s
     0     0    0.14936    0  319          -    0.14936      -     -    2s
     0     0    0.15021    0  348          -    0.15021      -     -    2s
     0     0    0.15225    0  343          -    0.15225      -     -    2s
     0     0    0.17569    0  360          -    0.17569      -     -    3s
     0     0    0.17790    0  332          -    0.17790      -     -    3s
     0     0    0.18433    0  314          -    0.18433      -     -    4s
     0     0    0.18485    0  365          -    0.18485      -     -    4s
     0     0    0.18679    0  315          -    0.18679      -     -    5s
     0     0    0.18751    0  293          -    0.18751      -     -    6s
     0     0    0.18846    0  304          -    0.18846      -     -    7s
     0     0    0.18903    0  327          -    0.18903      -     -    7s
     0     0    0.18944    0  309          -    0.18944      -     -    8s
     0     0    0.19030    0  319          -    0.19030      -     -    8s
     0     0    0.19346    0  341          -    0.19346      -     -    9s
     0     0    0.19401    0  304          -    0.19401      -     -    9s
     0     0 infeasible    0               - infeasible      -     -   10s

Cutting planes:
  Learned: 17
  Cover: 39
  Implied bound: 98
  Clique: 7
  MIR: 456
  StrongCG: 6
  Flow cover: 132
  Network: 23
  RLT: 7
  Relax-and-lift: 51
  BQP: 1

Explored 1 nodes (40457 simplex iterations) in 10.60 seconds (20.33 work units)
Thread count was 1 (of 20 available processors)

Solution count 0

Model is infeasible
Best objective -, best bound -, gap -

User-callback calls 3045, time in user-callback 0.00 sec
